Version identifier: 12.10.0.0 | 2019-11-26 | 843d4de
CPXPARAM_WorkMem                                 28672
Tried aggregator 2 times.
MIP Presolve modified 40 coefficients.
Aggregator did 75 substitutions.
Reduced MIP has 395 rows, 450 columns, and 1910 nonzeros.
Reduced MIP has 450 binaries, 0 generals, 0 SOSs, and 0 indicators.
Presolve time = 0,00 sec. (2,10 ticks)
Found incumbent of value 375,000000 after 0,01 sec. (3,41 ticks)
Probing time = 0,00 sec. (0,98 ticks)
Tried aggregator 1 time.
Detecting symmetries...
MIP Presolve eliminated 65 rows and 0 columns.
MIP Presolve added 130 rows and 0 columns.
Reduced MIP has 460 rows, 450 columns, and 1975 nonzeros.
Reduced MIP has 450 binaries, 0 generals, 0 SOSs, and 0 indicators.
Presolve time = 0,00 sec. (2,50 ticks)
Probing time = 0,00 sec. (0,97 ticks)
Clique table members: 1405.
MIP emphasis: balance optimality and feasibility.
MIP search method: dynamic search.
Parallel mode: deterministic, using up to 16 threads.
Root relaxation solution time = 0,00 sec. (2,09 ticks)

        Nodes                                         Cuts/
   Node  Left     Objective  IInf  Best Integer    Best Bound    ItCnt     Gap

*     0+    0                          375,0000        0,0000           100,00%
*     0+    0                          194,0000        0,0000           100,00%
*     0+    0                          190,0000        0,0000           100,00%
      0     0       76,7000   372      190,0000       76,7000      155   59,63%
      0     0       78,3174   372      190,0000     Cuts: 135      249   58,78%
      0     0       81,2729   372      190,0000     Cuts: 215      382   57,22%
      0     0       81,9392   372      190,0000     Cuts: 215      448   56,87%
      0     0       82,3063   372      190,0000     Cuts: 215      504   56,68%
      0     0       82,6730   372      190,0000     Cuts: 215      588   56,49%
*     0+    0                          183,0000       82,6730            54,82%
      0     0       97,0614   372      183,0000     Cuts: 215      873   46,96%
      0     0       98,1320   372      183,0000     Cuts: 215      984   46,38%
      0     0       98,6715   372      183,0000     Cuts: 215     1091   46,08%
      0     0       99,2525   372      183,0000     Cuts: 215     1201   45,76%
      0     0      100,4861   372      183,0000     Cuts: 215     1348   45,09%
      0     0      101,0396   372      183,0000     Cuts: 215     1473   44,79%
      0     0      101,2048   372      183,0000     Cuts: 205     1531   44,70%
*     0+    0                          181,0000      101,2048            44,09%
      0     0      101,3632   372      181,0000      Cuts: 39     1569   44,00%
      0     0      101,4811   372      181,0000      Cuts: 39     1666   43,93%
      0     0      101,9062   372      181,0000     Cuts: 158     1787   43,70%
      0     0      102,1633   372      181,0000     Cuts: 117     1868   43,56%
      0     0      102,3613   372      181,0000      Cuts: 36     1958   43,45%
      0     0      102,5768   372      181,0000      Cuts: 87     2065   43,33%
      0     0      102,7110   372      181,0000      Cuts: 39     2115   43,25%
      0     0      102,8088   372      181,0000      Cuts: 34     2225   43,20%
      0     0      102,9673   372      181,0000     Cuts: 111     2346   43,11%
      0     0      103,0762   372      181,0000      Cuts: 54     2448   43,05%
      0     0      103,2208   372      181,0000      Cuts: 59     2520   42,97%
      0     0      103,4007   372      181,0000      Cuts: 31     2632   42,87%
      0     0      103,6169   372      181,0000      Cuts: 22     2730   42,75%
      0     0      103,6956   372      181,0000     Cuts: 163     2842   42,71%
      0     0      103,8365   372      181,0000      Cuts: 30     2965   42,63%
      0     0      104,0473   372      181,0000      Cuts: 79     3111   42,52%
      0     0      104,1884   372      181,0000     Cuts: 135     3261   42,44%
      0     0      104,2372   372      181,0000     Cuts: 102     3337   42,41%
      0     0      104,2931   372      181,0000  ZeroHalf: 30     3461   42,38%
      0     0      104,3863   372      181,0000      Cuts: 39     3569   42,33%
      0     0      104,4546   372      181,0000     Cuts: 143     3714   41,63%
      0     0      105,1764   372      181,0000      Cuts: 72     3967   41,63%
      0     0      106,3615   372      181,0000     Cuts: 215     4257   41,24%
      0     0      106,8450   372      181,0000     Cuts: 215     4432   40,97%
      0     0      107,0324   372      181,0000     Cuts: 139     4514   40,87%
      0     0      107,1289   372      181,0000      Cuts: 58     4638   40,81%
      0     0      107,2579   372      181,0000      Cuts: 93     4738   40,74%
      0     0      107,3707   372      181,0000      Cuts: 32     4856   40,68%
      0     0      107,4957   372      181,0000     Cuts: 155     5019   40,61%
      0     0      107,5752   372      181,0000      Cuts: 66     5129   40,57%
      0     0      107,6937   372      181,0000     Cuts: 159     5312   40,50%
*     0+    0                          175,0000      107,6937            38,46%
      0     0      107,8313   372      175,0000     Cuts: 154     5473   38,38%
      0     0      107,9935   372      175,0000      Cuts: 97     5639   38,29%
      0     0      108,1074   372      175,0000     Cuts: 172     5771   38,22%
      0     0      108,2326   372      175,0000     Cuts: 104     5947   38,15%
      0     0      108,2701   372      175,0000     Cuts: 123     6058   38,13%
      0     0      108,3329   372      175,0000      Cuts: 74     6166   38,10%
      0     0      108,4362   372      175,0000     Cuts: 130     6306   38,04%
      0     0      108,5049   372      175,0000     Cuts: 115     6402   38,00%
      0     0      108,5641   372      175,0000     Cuts: 102     6515   37,96%
      0     0      108,6221   372      175,0000      Cuts: 84     6638   37,93%
      0     0      108,6636   372      175,0000      Cuts: 65     6719   37,91%
      0     2      108,6636   420      175,0000      117,6747     6719   32,76%
Elapsed time = 1,87 sec. (1316,66 ticks, tree = 0,02 MB, solutions = 6)
    683   361      156,6500   154      175,0000      117,6747    49105   32,76%
   1826  1047      171,2735    27      175,0000      128,2796   121974   26,70%
   3167  1807      171,6975    96      175,0000      141,7082   194448   19,02%

Performing restart 1

Repeating presolve.
Tried aggregator 2 times.
MIP Presolve eliminated 62 rows and 30 columns.
MIP Presolve added 56 rows and 0 columns.
MIP Presolve modified 144 coefficients.
Aggregator did 4 substitutions.
Reduced MIP has 450 rows, 412 columns, and 1742 nonzeros.
Reduced MIP has 412 binaries, 0 generals, 0 SOSs, and 0 indicators.
Presolve time = 0,01 sec. (2,60 ticks)
Tried aggregator 1 time.
Reduced MIP has 450 rows, 412 columns, and 1742 nonzeros.
Reduced MIP has 412 binaries, 0 generals, 0 SOSs, and 0 indicators.
Presolve time = 0,00 sec. (1,50 ticks)
Represolve time = 0,04 sec. (22,50 ticks)
   4438     0      109,3457   412      175,0000      Cuts: 80   293235   16,37%
   4438     0      109,9282   412      175,0000      Cuts: 82   293494   16,37%
   4438     0      110,1864   412      175,0000      Cuts: 47   293714   16,37%
   4438     0      110,5237   412      175,0000      Cuts: 99   293939   16,37%
   4438     2      110,5237   411      175,0000      146,3519   293939   16,37%
   4440     4      115,7249   384      175,0000      146,3519   294849   16,37%
   5000   241      170,5537   149      175,0000      146,3519   312578   16,37%
   5959   859      170,4663   205      175,0000      146,3519   370291   16,37%
   6476  1072      135,8633   280      175,0000      146,3519   407171   16,37%
   6911  1466      166,0116   177      175,0000      146,3519   449175   16,37%
   9415  3490      168,9601    67      175,0000      146,3519   649317   16,37%
Elapsed time = 6,10 sec. (5398,53 ticks, tree = 1,72 MB, solutions = 7)

Performing restart 2

Repeating presolve.
Tried aggregator 1 time.
Reduced MIP has 450 rows, 412 columns, and 1742 nonzeros.
Reduced MIP has 412 binaries, 0 generals, 0 SOSs, and 0 indicators.
Presolve time = 0,00 sec. (1,06 ticks)
Tried aggregator 1 time.
Reduced MIP has 450 rows, 412 columns, and 1742 nonzeros.
Reduced MIP has 412 binaries, 0 generals, 0 SOSs, and 0 indicators.
Presolve time = 0,00 sec. (1,50 ticks)
Represolve time = 0,04 sec. (24,46 ticks)
  10049     0      111,8767   412      175,0000      Cuts: 64   734550   16,37%
  10049     0      112,0319   412      175,0000      Cuts: 41   734703   16,37%
  10049     0      112,1423   412      175,0000      Cuts: 53   734865   16,37%
  10049     0      112,4860   412      175,0000      Cuts: 60   735070   16,37%
  10049     0      112,6218   412      175,0000      Cuts: 81   735196   16,37%
  10049     0      112,6976   412      175,0000      Cuts: 78   735304   16,37%
  10049     2      112,6976   412      175,0000      146,3519   735304   16,37%
  14046  2277      166,8582   170      175,0000      146,3519   957994   16,37%
  17744  2994        cutoff            175,0000      156,8886  1230095   10,35%
  22725   458        cutoff            175,0000      172,0564  1428373    1,68%

GUB cover cuts applied:  18
Clique cuts applied:  58
Cover cuts applied:  575
Flow cuts applied:  4
Mixed integer rounding cuts applied:  273
Zero-half cuts applied:  109
Lift and project cuts applied:  68
Gomory fractional cuts applied:  19

Root node processing (before b&c):
  Real time             =    1,86 sec. (1314,32 ticks)
Parallel b&c, 16 threads:
  Real time             =    9,53 sec. (8601,93 ticks)
  Sync time (average)   =    1,87 sec.
  Wait time (average)   =    0,01 sec.
                          ------------
Total (root+branch&cut) =   11,39 sec. (9916,26 ticks)
